 $device free=41 $end
 $MP2 code=gpurimp2 $END
 $AUXBAS cabnam=ccd $END
 $offload rhf=.t. makefp=.t. $end
! Change NGROUP to reflect number of nodes you are running on
 $GDDI NGROUP=6 $END
! Change 1st and 2nd entry of NGRFMO(1) to reflect number of nodes you
! are running on
 $SCF DIRSCF=.TRUE. DAMP=.TRUE. SHIFT=.TRUE. NPUNCH=0 $END
 $SYSTEM MWORDS=3000 MEMDDI=30000 $END
 $LOCAL CVGLOC=1.0E-6 FCORE=.TRUE. $END
! Threaded integrals
 $INTGRL INTOMP=1 $END
 $CONTRL SCFTYP=RHF RUNTYP=ENERGY NPRINT=-5
         MPLEVL=2 ISPHER=1
         LOCAL=RUEDNBRG MAXIT=50 $END
 $FMO
     NBODY=2
     IEFMO=1
     RESDIM=1
! UNCOMMENT THE LINE BELOW FOR POST-HF RUNS
     RCORSD=1
     MODEFM(1)=0, 16, 1, 1, 1
     RAFO(1)=.1, 1, 1
     MAXCAO=9
     MAXBND=30
     NLAYER=1
     NFRAG=45
     NACUT=90
 $END
 $DATA
 EFMO 6 fragment MSN single pore model
 C1
 O.1-1    8
      N31 6

 C.1-1    6
      N31 6

 Si.1-1  14
      N31 6

 N.1-1    7
      N31 6

 H.1-1    1
      N31 6

 $END
 $FMOXYZ
   O   8.0           -7.933364      -26.762377       10.993228
   H   1.0           -8.611618      -26.087721       10.956170
   H   1.0           -7.887334      -27.116352       10.105252
   O   8.0          -21.576373        0.305810       20.129425
   H   1.0          -20.945345        0.597595       19.471226
   H   1.0          -21.848361       -0.565765       19.842552
   O   8.0           -2.470869        6.896087       24.326384
   H   1.0           -1.801318        7.566137       24.187472
   H   1.0           -3.160351        7.100234       23.694834
   O   8.0            7.558818       28.778037       -3.844878
   H   1.0            6.604418       28.722214       -3.895552
   H   1.0            7.866630       28.562106       -4.724959
   O   8.0           15.537650      -25.563655       -2.258521
   H   1.0           15.626833      -25.408342       -3.198992
   H   1.0           14.632171      -25.849763       -2.139500
   O   8.0            9.260059      -10.294480      -13.855415
   H   1.0            9.259275      -10.330851      -14.812096
   H   1.0            9.822650       -9.551936      -13.636244
   O   8.0          -10.559165       20.311041      -14.105387
   H   1.0          -10.091280       19.855269      -14.805328
   H   1.0          -10.993166       21.047266      -14.536121
   O   8.0            4.667173        4.677951      -27.667708
   H   1.0            4.810068        4.300433      -26.799594
   H   1.0            3.717768        4.771412      -27.743938
   O   8.0           -2.502836      -15.945310       19.449150
   H   1.0           -2.551616      -15.926993       18.493197
   H   1.0           -3.316983      -16.362179       19.730757
   O   8.0           13.875143       15.078922      -13.988653
   H   1.0           14.250237       14.553153      -13.281947
   H   1.0           13.746015       15.947945      -13.609124
   O   8.0            0.531917       -9.690906        3.793917
   H   1.0            1.330275       -9.748052        3.268635
   H   1.0            0.405742       -8.755455        3.951804
   O   8.0            1.907604       15.331736        7.904994
   H   1.0            0.952755       15.262964        7.895265
   H   1.0            2.090028       16.194171        8.277613
   O   8.0           -6.132850      -24.480423       10.550375
   H   1.0           -5.670954      -23.903758       11.159203
   H   1.0           -7.009118      -24.581692       10.921609
   O   8.0          -14.579706      -20.258815        0.364246
   H   1.0          -15.536117      -20.248895        0.405982
   H   1.0          -14.370616      -20.118780       -0.559111
   O   8.0           17.042930      -19.442238       -0.073780
   H   1.0           16.891290      -19.192670        0.837967
   H   1.0           16.708956      -18.708917       -0.590132
   O   8.0            1.458719        1.387825        9.493477
   H   1.0            1.046908        1.753660        8.710446
   H   1.0            1.843865        0.559891        9.206937
   O   8.0           -9.673815        8.167025       26.929062
   H   1.0           -8.902455        8.052741       27.484494
   H   1.0           -9.598509        7.488834       26.258016
   O   8.0           10.877594      -17.869248       11.189574
   H   1.0           10.938117      -17.390927       10.362466
   H   1.0           11.667006      -17.627694       11.673721
   O   8.0            0.659452       14.759658       11.990337
   H   1.0            0.593194       15.712930       12.049028
   H   1.0            0.436338       14.441554       12.864949
   O   8.0           -6.999135      -18.542980      -17.943132
   H   1.0           -6.562929      -18.196829      -18.721891
   H   1.0           -7.273277      -19.427356      -18.185293
   O   8.0           10.045768       10.756037       15.073879
   H   1.0            9.727069       11.658497       15.050243
   H   1.0            9.890590       10.461986       15.971303
   O   8.0           11.320360      -22.527296      -11.580893
   H   1.0           10.683445      -23.179744      -11.288982
   H   1.0           11.866070      -22.353520      -10.814134
   O   8.0           -3.622989       21.426520       -6.716120
   H   1.0           -2.845248       21.444592       -7.274112
   H   1.0           -4.295121       20.993406       -7.242017
   O   8.0           18.381900      -10.470058      -20.437193
   H   1.0           18.574116      -11.389365      -20.622907
   H   1.0           18.777132       -9.983404      -21.160294
   O   8.0           13.978831      -19.389138      -13.871755
   H   1.0           13.319467      -19.671772      -14.505725
   H   1.0           14.509161      -18.742772      -14.337457
   O   8.0          -15.463026      -12.431224       13.203204
   H   1.0          -14.851603      -12.969346       13.706343
   H   1.0          -15.247453      -11.528238       13.435715
   O   8.0            1.077399        3.934417       25.363440
   H   1.0            1.322888        3.192462       24.810448
   H   1.0            1.725517        4.611812       25.171096
   O   8.0           -5.074497       22.708390        3.241480
   H   1.0           -4.745756       23.369723        2.632275
   H   1.0           -5.147175       21.907708        2.722305
   O   8.0           -1.287944        0.234869        6.224648
   H   1.0           -1.603670        0.767550        6.954806
   H   1.0           -1.546093       -0.660773        6.441673
   O   8.0            2.891261       19.592747       19.547340
   H   1.0            2.142312       19.311405       20.073158
   H   1.0            3.139635       20.444592       19.905932
   O   8.0           12.420005      -14.988473       -2.214989
   H   1.0           11.592415      -14.837011       -2.671844
   H   1.0           12.575702      -15.929769       -2.290066
   O   8.0           26.812494       -8.022867        8.612730
   H   1.0           27.138973       -8.536650        9.351649
   H   1.0           25.983020       -7.653495        8.915143
   O   8.0            2.966773      -16.062662       10.353376
   H   1.0            2.463436      -16.621547        9.761040
   H   1.0            2.312793      -15.535671       10.812187
   O   8.0            5.120469       25.433510        6.493796
   H   1.0            4.804933       26.092097        7.112877
   H   1.0            5.244090       24.641383        7.016452
   O   8.0           -0.924965       29.790860       -1.356181
   H   1.0           -1.658740       29.944773       -0.760826
   H   1.0           -1.300539       29.308879       -2.092765
   O   8.0           -6.296795      -19.636120       -9.465861
   H   1.0           -6.427400      -20.584541       -9.467163
   H   1.0           -5.856329      -19.447892       -8.637322
   O   8.0          -19.149077        9.726408       -3.873747
   H   1.0          -19.293068       10.409712       -3.218825
   H   1.0          -19.673470        8.983327       -3.575823
   O   8.0           -4.771077       20.818015       21.068229
   H   1.0           -5.706955       20.782696       20.869617
   H   1.0           -4.634882       20.149391       21.739280
   O   8.0           18.052345       17.591656      -12.599307
   H   1.0           18.376594       16.782238      -12.204002
   H   1.0           18.489444       18.294428      -12.118711
   O   8.0          -14.077747      -12.691723       -7.421728
   H   1.0          -15.003912      -12.731420       -7.660904
   H   1.0          -13.613493      -12.565326       -8.249018
   O   8.0           -4.857552       -1.556467        1.951440
   H   1.0           -5.602506       -0.963297        2.050206
   H   1.0           -4.511812       -1.376480        1.077377
   O   8.0          -15.528319      -18.014417       -7.964475
   H   1.0          -16.329912      -18.074969       -7.444529
   H   1.0          -14.883165      -18.535279       -7.486567
   O   8.0          -19.077321        9.212086       10.810239
   H   1.0          -18.564052        8.826767       10.099854
   H   1.0          -19.365006        8.468445       11.339534
   O   8.0           -5.531537      -12.201932       -6.707969
   H   1.0           -6.190227      -12.098234       -7.394944
   H   1.0           -4.697231      -12.266111       -7.172438
   O   8.0           -2.914866       10.195265       19.928542
   H   1.0           -2.233609        9.856392       19.347494
   H   1.0           -2.444583       10.689085       20.600028
   O   8.0           -9.887469       13.616567       13.159735
   H   1.0          -10.485416       14.028722       12.535916
   H   1.0           -9.258363       14.300469       13.388690
   O   8.0            6.189786      -28.309662       -6.959912
   H   1.0            6.093974      -27.402128       -6.670490
   H   1.0            6.197912      -28.265221       -7.915881
   O   8.0            5.843548        5.002361       -1.316018
   H   1.0            6.055095        5.744260       -1.882936
   H   1.0            5.937712        4.230042       -1.873309
   O   8.0          -18.967860      -19.130360       -0.624169
   H   1.0          -18.285914      -19.468816       -0.043687
   H   1.0          -19.297317      -18.344959       -0.187684
   O   8.0           -1.351830      -11.777917      -17.878497
   H   1.0           -0.772225      -12.204728      -18.509727
   H   1.0           -2.190250      -12.230960      -17.966362
   O   8.0          -16.118836      -10.474748       18.656973
   H   1.0          -15.280599      -10.012530       18.640409
   H   1.0          -15.964854      -11.247549       19.200099
   O   8.0           15.813972       19.047966       -8.512243
   H   1.0           16.598813       19.077863       -9.059686
   H   1.0           15.514402       18.140185       -8.558147
   O   8.0           20.061099       17.345691      -10.906315
   H   1.0           20.812950       17.755922      -11.334090
   H   1.0           20.382063       17.076796      -10.045737
   O   8.0            3.516234       17.994477      -15.314379
   H   1.0            4.162889       17.858230      -14.621677
   H   1.0            2.873644       18.595918      -14.938527
   O   8.0          -17.269237        6.826046       10.889000
   H   1.0          -17.061702        6.107708       11.486899
   H   1.0          -17.235909        7.615371       11.429159
   O   8.0           -7.578173        8.996106       15.429229
   H   1.0           -6.998625        8.482893       14.865937
   H   1.0           -8.276849        9.303058       14.851691
   O   8.0          -13.264794       18.696454       18.445067
   H   1.0          -13.528773       17.880545       18.019427
   H   1.0          -13.957314       19.321935       18.232680
   O   8.0          -13.618838        3.137035       18.956510
   H   1.0          -13.079380        3.137297       19.747425
   H   1.0          -14.490084        3.401999       19.250861
   O   8.0            7.450208      -28.771231       -2.647101
   H   1.0            7.344225      -27.924815       -2.212464
   H   1.0            6.571600      -29.150012       -2.669272
   O   8.0           23.219347        2.795720       13.411357
   H   1.0           23.065466        2.045685       12.836614
   H   1.0           22.416465        3.314259       13.362207
   O   8.0           10.990655       -5.822268      -17.167578
   H   1.0           11.707719       -6.446896      -17.057028
   H   1.0           10.335706       -6.286695      -17.688410
   O   8.0           18.917089      -10.495175      -15.552465
   H   1.0           18.589835      -10.414613      -16.448555
   H   1.0           19.679539       -9.917994      -15.514400
   O   8.0            9.694546       -6.848784        6.683645
   H   1.0           10.522749       -6.548148        7.058160
   H   1.0            9.131913       -7.026301        7.437202
   O   8.0            7.919032        0.147389      -24.028034
   H   1.0            8.380241       -0.163735      -24.807168
   H   1.0            7.248739        0.744914      -24.359073
   O   8.0            8.049325      -19.161274      -18.554423
   H   1.0            7.780661      -19.642626      -19.337164
   H   1.0            8.043627      -19.809840      -17.850685
   O   8.0          -18.518557        4.845197      -22.998931
   H   1.0          -19.215249        5.043788      -22.373036
   H   1.0          -18.129925        5.692876      -23.214158
   O   8.0           16.650972      -19.717953       14.390385
   H   1.0           16.407274      -19.923315       15.293158
   H   1.0           17.594409      -19.559656       14.418407
   O   8.0            5.068950       20.348609        7.788572
   H   1.0            4.437167       20.747154        8.387382
   H   1.0            5.514136       19.679196        8.307814
   O   8.0            6.829851       16.128535      -24.233696
   H   1.0            6.424803       15.410801      -24.720888
   H   1.0            6.718027       15.896385      -23.312003
   O   8.0          -10.411667      -24.323648       13.609582
   H   1.0           -9.781956      -23.604654       13.554143
   H   1.0          -11.115280      -23.994122       14.168383
   O   8.0           -8.043495       27.429891       -7.823168
   H   1.0           -7.618125       26.707347       -7.361051
   H   1.0           -7.333177       27.891351       -8.268613
   O   8.0           28.266118       -6.856111       -5.614487
   H   1.0           27.369636       -6.535248       -5.714137
   H   1.0           28.349530       -7.561336       -6.256060
   O   8.0           15.380340       20.203889       -2.931064
   H   1.0           15.003464       21.016577       -2.593331
   H   1.0           15.179937       19.543589       -2.267919
   O   8.0            9.068581      -14.541671       24.602231
   H   1.0            9.552898      -13.715840       24.600446
   H   1.0            9.453919      -15.056323       23.893313
   O   8.0            9.858708       22.142820        0.618043
   H   1.0           10.177012       21.240414        0.648166
   H   1.0            9.066277       22.143991        1.154672
   O   8.0            9.940349        1.506118        2.305917
   H   1.0            9.557529        1.015848        3.033684
   H   1.0           10.630323        2.038373        2.701591
   O   8.0           -6.879988       23.191085       13.451367
   H   1.0           -7.364618       23.251217       12.627911
   H   1.0           -6.073557       22.725363       13.230711
   O   8.0           -4.617984        6.968802       10.362583
   H   1.0           -5.289113        7.042428        9.683813
   H   1.0           -3.801277        7.220276        9.931692
   O   8.0            8.531859      -19.312824       19.905044
   H   1.0            8.182626      -18.511270       20.295057
   H   1.0            8.684585      -19.094822       18.985769
   O   8.0           -9.225929      -15.480627       -0.009800
   H   1.0           -9.288458      -16.145878       -0.695433
   H   1.0           -8.695632      -14.781092       -0.391053
   O   8.0           -5.799274      -12.462303        1.837900
   H   1.0           -5.951341      -12.165352        2.735261
   H   1.0           -6.627194      -12.309516        1.382794
   O   8.0          -23.561839        4.951043       -5.190558
   H   1.0          -23.805538        4.888281       -6.114265
   H   1.0          -24.354592        4.715901       -4.708721
   O   8.0            5.823810      -18.202805      -16.444229
   H   1.0            6.165980      -17.424943      -16.003307
   H   1.0            6.500204      -18.447297      -17.075602
   O   8.0           14.884683       20.918879       -5.343144
   H   1.0           15.360522       21.049130       -6.163615
   H   1.0           14.528650       21.779757       -5.123951
   O   8.0          -11.375668      -12.972214       17.694348
   H   1.0          -11.071519      -12.455421       16.948037
   H   1.0          -11.815458      -12.344522       18.267501
   O   8.0          -10.755951        2.967486      -22.374549
   H   1.0          -11.269810        3.316625      -23.102981
   H   1.0          -11.267752        2.230744      -22.041102
   O   8.0          -20.736617        5.395439        7.971826
   H   1.0          -19.987655        5.846769        7.582056
   H   1.0          -21.439930        6.044435        7.980245
   O   8.0           -4.474682       -9.445757      -16.098262
   H   1.0           -3.710616       -8.870454      -16.140600
   H   1.0           -4.933622       -9.189550      -15.298481
   O   8.0           -3.800427       13.339257       26.601333
   H   1.0           -3.002930       13.845103       26.444233
   H   1.0           -3.504048       12.536081       27.029101
   O   8.0            7.070927        8.383068        0.843835
   H   1.0            6.292338        8.512427        1.385709
   H   1.0            7.580125        9.186935        0.945969
   O   8.0            2.131227       -8.043232      -22.430730
   H   1.0            1.299162       -8.492251      -22.581099
   H   1.0            2.803427       -8.677788      -22.678529
   O   8.0            3.908028       11.554697       21.258751
   H   1.0            3.566576       10.736524       20.897412
   H   1.0            3.297663       12.229882       20.962953
   O   8.0           27.973966        6.789417        5.061384
   H   1.0           27.453515        6.609191        4.278306
   H   1.0           28.029316        7.743724        5.107775
   O   8.0           -5.439985        8.456334       25.494663
   H   1.0           -6.020141        8.135532       26.185363
   H   1.0           -4.721272        7.825228       25.461914
   O   8.0           11.590274       18.021006       -6.572213
   H   1.0           11.806639       18.931891       -6.372123
   H   1.0           11.313780       17.643021       -5.737590
   O   8.0            4.047214      -18.546437      -15.189211
   H   1.0            3.090061      -18.536778      -15.171134
   H   1.0            4.282545      -19.458432      -15.358922
   O   8.0           -1.263486      -27.822331      -11.150985
   H   1.0           -2.017200      -27.261530      -11.335318
   H   1.0           -1.407082      -28.145893      -10.261825
   O   8.0           -6.160533        5.337748       -0.854935
   H   1.0           -6.317908        6.281295       -0.893855
   H   1.0           -5.980249        5.154530        0.066935
   O   8.0           26.365910       -0.819807        8.425613
   H   1.0           25.882469       -1.538063        8.834214
   H   1.0           27.003050       -1.244930        7.851818
   O   8.0           -1.812438       15.026455       -1.706755
   H   1.0           -2.546749       15.481895       -2.118971
   H   1.0           -1.220308       14.809061       -2.426504
   O   8.0           -4.756731       -7.129524      -23.946865
   H   1.0           -5.399594       -7.538084      -24.526837
   H   1.0           -5.209046       -7.025542      -23.109896
   O   8.0           -3.572337       13.704207      -13.818561
   H   1.0           -4.127050       14.471504      -13.676748
   H   1.0           -2.687086       14.053720      -13.919008
   O   8.0           14.652485       -8.758666        6.512677
   H   1.0           15.590385       -8.945922        6.469787
   H   1.0           14.315010       -9.338892        7.194854
   O   8.0          -25.012545       15.482480       -3.763554
   H   1.0          -25.759855       14.893732       -3.870623
   H   1.0          -25.208051       15.990218       -2.976219
   O   8.0           -3.239101       10.759377       -5.238551
   H   1.0           -3.642488       11.541148       -4.860828
   H   1.0           -2.369472       10.713022       -4.841671
   O   8.0           10.136735       19.506958       17.662523
   H   1.0           10.836042       18.858042       17.582272
   H   1.0            9.465327       19.225664       17.041233
   O   8.0           -1.152341       20.856986       14.106470
   H   1.0           -0.637737       21.663880       14.132305
   H   1.0           -0.566325       20.201474       13.728573
   O   8.0           15.276048      -19.895238        4.160358
   H   1.0           14.740829      -20.254673        4.868108
   H   1.0           15.394449      -18.972176        4.383638
   O   8.0            2.651265       10.413867       13.318807
   H   1.0            2.862894        9.978690       12.492735
   H   1.0            3.060784        9.874402       13.994964
   O   8.0           -7.044336       13.328919      -12.478914
   H   1.0           -7.073041       12.879860      -13.323949
   H   1.0           -6.114388       13.478488      -12.309377
   O   8.0          -27.313632       -3.784463       -4.596358
   H   1.0          -28.080896       -3.614845       -5.143258
   H   1.0          -26.722717       -4.294577       -5.150001
   O   8.0          -15.641669       -1.466125       17.157071
   H   1.0          -15.687276       -1.325161       18.102910
   H   1.0          -15.198394       -2.307930       17.053201
   O   8.0           -7.758430        7.895181      -27.807435
   H   1.0           -7.702134        7.787495      -26.857806
   H   1.0           -6.850389        7.949438      -28.104816
   O   8.0           25.509482       -4.110259      -15.245062
   H   1.0           24.996834       -4.434910      -15.985572
   H   1.0           25.564133       -3.164012      -15.377528
   O   8.0           -8.640082       -7.291398       24.215708
   H   1.0           -8.893104       -7.079026       23.317131
   H   1.0           -9.424998       -7.670215       24.611083
   O   8.0            1.038939       19.119836       18.182881
   H   1.0            0.450595       18.371435       18.081348
   H   1.0            1.852517       18.855295       17.753900
   O   8.0            2.436380      -21.301887      -14.756640
   H   1.0            2.471274      -20.460129      -14.301901
   H   1.0            2.905102      -21.158922      -15.578697
   O   8.0          -29.628187       -2.250154       -4.138647
   H   1.0          -29.313417       -2.619225       -3.313256
   H   1.0          -29.708201       -1.310565       -3.975287
   O   8.0           10.703880       18.026571       -9.973552
   H   1.0           10.294273       17.169300       -9.855776
   H   1.0           10.111399       18.506839      -10.551675
   O   8.0          -17.770707       15.859327       15.623908
   H   1.0          -17.402071       15.330853       16.331993
   H   1.0          -17.859367       16.738543       15.991380
   O   8.0            4.395764      -12.448597      -21.468710
   H   1.0            3.539635      -12.348338      -21.052112
   H   1.0            4.920480      -11.721290      -21.134621
   O   8.0           11.909076       25.585165       -8.275537
   H   1.0           12.570595       25.726008       -8.953119
   H   1.0           11.779931       26.443852       -7.873175
   O   8.0            2.505594       -1.249084       -0.987456
   H   1.0            2.407865       -0.429347       -0.502643
   H   1.0            2.211911       -1.930706       -0.383256
   O   8.0          -24.894376      -11.610111       -5.315248
   H   1.0          -25.352308      -10.769372       -5.311046
   H   1.0          -25.160688      -12.041266       -4.503399
   O   8.0           13.484956       15.682906      -21.445624
   H   1.0           13.236719       15.189588      -22.227659
   H   1.0           12.946861       16.473948      -21.470604
   O   8.0           23.420483        9.516754       -9.928400
   H   1.0           24.245236        9.266073      -10.344937
   H   1.0           23.023548        8.692045       -9.648735
   O   8.0          -22.988318      -11.903712       -8.501511
   H   1.0          -23.784252      -11.555236       -8.099498
   H   1.0          -23.259391      -12.720649       -8.919901
   O   8.0          -10.498911       20.470374       14.659262
   H   1.0           -9.847209       20.140497       15.278155
   H   1.0          -10.883194       21.234744       15.088193
   O   8.0            0.209716       24.726177        7.431863
   H   1.0           -0.474547       25.195712        6.954493
   H   1.0            1.013718       25.214922        7.256861
   O   8.0           16.034329       25.052702        3.916806
   H   1.0           15.773541       24.152508        3.721354
   H   1.0           15.317106       25.410326        4.439887
   O   8.0          -15.373403       20.554096       -3.194901
   H   1.0          -15.281652       20.572946       -2.242121
   H   1.0          -14.584358       20.114361       -3.511062
   O   8.0           25.229985        6.990570      -13.168485
   H   1.0           24.947857        6.076336      -13.202289
   H   1.0           26.158100        6.954996      -12.937719
   O   8.0            4.716579       -8.565759      -23.924997
   H   1.0            4.459592       -7.652289      -24.051849
   H   1.0            5.653977       -8.535181      -23.734560
   O   8.0           24.690708       12.893803      -11.072165
   H   1.0           24.773114       12.133719      -11.648398
   H   1.0           25.179000       12.660338      -10.282873
   O   8.0          -21.930897        3.344991       20.195992
   H   1.0          -21.291241        3.711690       20.806675
   H   1.0          -21.548009        3.475003       19.328576
   O   8.0           -2.328672       18.064708      -16.490691
   H   1.0           -3.203354       18.299334      -16.801247
   H   1.0           -1.733541       18.362087      -17.178660
   O   8.0           18.937552      -10.729981        3.359345
   H   1.0           18.413219      -11.196589        2.708259
   H   1.0           19.021967       -9.839984        3.017737
   O   8.0            7.663427       -8.013838      -22.564759
   H   1.0            7.769730       -8.746848      -23.171354
   H   1.0            6.962398       -8.283002      -21.971441
   O   8.0          -10.125589       13.843360      -19.237599
   H   1.0           -9.656488       13.157406      -18.762232
   H   1.0           -9.561657       14.060387      -19.979756
   O   8.0           11.609845       24.667997       -5.405661
   H   1.0           11.108059       25.008969       -6.146276
   H   1.0           12.427991       24.349375       -5.786494
   O   8.0           -1.685453       10.151701       13.787606
   H   1.0           -2.589305        9.836940       13.764431
   H   1.0           -1.756253       11.105070       13.832247
   O   8.0           10.471196      -20.967520      -12.877491
   H   1.0            9.796669      -20.500989      -12.383605
   H   1.0           10.446687      -20.583555      -13.753783
   O   8.0           -4.988535       -9.601800       20.425349
   H   1.0           -4.642788      -10.168544       21.115148
   H   1.0           -5.134624       -8.756377       20.849419
   O   8.0          -20.147283      -12.882434       14.771016
   H   1.0          -19.931064      -12.971257       13.842619
   H   1.0          -20.609962      -12.047417       14.838785
   O   8.0            7.883969       -1.225995       27.759848
   H   1.0            7.406176       -1.752379       27.118602
   H   1.0            8.136636       -0.431781       27.289421
   O   8.0            7.173396       14.517574        8.962045
   H   1.0            7.942701       13.997590        9.195172
   H   1.0            6.441479       14.089885        9.406226
   O   8.0           -5.368081       21.220366      -16.261466
   H   1.0           -4.637439       21.020282      -16.846864
   H   1.0           -6.142765       20.876137      -16.705637
   O   8.0           -0.037807      -18.090181      -18.073164
   H   1.0           -0.618178      -18.109976      -17.312021
   H   1.0            0.595144      -18.791557      -17.920317
   O   8.0           10.687189        6.680537       26.901693
   H   1.0           10.817419        5.852148       27.363617
   H   1.0            9.746054        6.725211       26.733802
   O   8.0           23.391253       17.337213        0.342164
   H   1.0           23.976334       18.031432        0.038352
   H   1.0           23.088409       16.902161       -0.454662
   O   8.0            9.381950        4.771055        4.310660
   H   1.0            8.476191        4.639543        4.591492
   H   1.0            9.890795        4.799372        5.120717
   O   8.0          -15.279396       13.051210       22.275274
   H   1.0          -15.302930       13.861795       21.766393
   H   1.0          -16.059696       12.566942       22.005954
   O   8.0            4.328848      -17.101371      -17.622085
   H   1.0            5.093789      -16.531500      -17.703785
   H   1.0            4.018776      -16.972774      -16.725851
   O   8.0           -6.345072       26.698276       -9.829034