 $device free=41 $end
 $MP2 code=gpurimp2 $END
 $AUXBAS cabnam=ccd $END
 $offload rhf=.t. makefp=.t. $end
! Change NGROUP to reflect number of nodes you are running on
 $GDDI NGROUP=1536 $END
! Change 1st and 2nd entry of NGRFMO(1) to reflect number of nodes you
! are running on
 $SCF DIRSCF=.TRUE. DAMP=.TRUE. SHIFT=.TRUE. NPUNCH=0 $END
 $SYSTEM MWORDS=3000 MEMDDI=30000 $END
 $LOCAL CVGLOC=1.0E-6 FCORE=.TRUE. $END
! Threaded integrals
 $INTGRL INTOMP=1 $END
 $CONTRL SCFTYP=RHF RUNTYP=ENERGY NPRINT=-5
         MPLEVL=2 ISPHER=1
         LOCAL=RUEDNBRG MAXIT=50 $END
 $FMO
     NBODY=2
     IEFMO=1
     RESDIM=1
! UNCOMMENT THE LINE BELOW FOR POST-HF RUNS
     RCORSD=1
     MODEFM(1)=0, 16, 1, 1, 1
     RAFO(1)=.1, 1, 1
     MAXCAO=9
     MAXBND=30
     NLAYER=1
     NFRAG=300
     NACUT=99
 $END
 $DATA
 EFMO 6 fragment MSN single pore model
 C1
 O.1-1    8
      N31 6

 C.1-1    6
      N31 6

 Si.1-1  14
      N31 6

 N.1-1    7
      N31 6

 H.1-1    1
      N31 6

 $END
 $FMOXYZ
O 8.0       -16.500916      -20.202915      -21.523398
H 1.0        -15.663312      -19.751734      -21.630247
H 1.0        -16.297264      -20.985242      -21.011141
O 8.0         6.891328      -24.388581      -31.830989
H 1.0          6.555579      -25.000001      -32.486732
H 1.0          6.131161      -24.153815      -31.299059
O 8.0        21.188314      -18.920641        9.844412
H 1.0         20.251568      -19.048518        9.693698
H 1.0         21.239809      -18.304909       10.575260
O 8.0       -12.765567      -21.572111      -26.509961
H 1.0        -12.227445      -21.255090      -25.784370
H 1.0        -13.362004      -22.208674      -26.116303
O 8.0        -9.515876       -1.237856      -20.132237
H 1.0         -9.943462       -2.089841      -20.043615
H 1.0        -10.212441       -0.595807      -19.996268
O 8.0        25.891198       -8.125165       51.882818
H 1.0         25.256209       -7.432549       52.066212
H 1.0         25.431738       -8.736363       51.307273
O 8.0         6.036318        4.286942       44.734690
H 1.0          6.671189        3.594230       44.551250
H 1.0          6.450942        5.091561       44.423898
O 8.0        -4.706746        4.525795      -54.158835
H 1.0         -4.752779        5.472445      -54.023572
H 1.0         -5.340360        4.343620      -54.852567
O 8.0         2.379473      -10.030072      -52.482615
H 1.0          2.713858       -9.598285      -53.268940
H 1.0          2.975411      -10.763253      -52.330235
O 8.0        22.863306       11.902348      -51.469962
H 1.0         23.338591       11.497893      -52.195965
H 1.0         23.014412       11.324257      -50.722369
O 8.0        25.961320       12.259472      -53.039904
H 1.0         26.706261       11.911990      -53.530700
H 1.0         25.194209       12.048825      -53.571962
O 8.0        23.887297       15.391097       -1.630873
H 1.0         23.606865       16.061137       -2.254544
H 1.0         23.880117       15.827139       -0.778974
O 8.0        22.330285      -19.566526       46.451973
H 1.0         22.479240      -20.134310       45.695670
H 1.0         21.874865      -20.116803       47.088923
O 8.0       -29.852374        1.831182       -0.041656
H 1.0        -30.000015        2.577682        0.539293
H 1.0        -28.933283        1.896612       -0.300324
O 8.0       -29.349685       22.023384      -16.142700
H 1.0        -29.621721       22.838805      -15.721221
H 1.0        -28.854237       22.296808      -16.914509
O 8.0        20.183344       11.112802      -19.394545
H 1.0         20.291582       11.761988      -18.699274
H 1.0         21.064914       10.780227      -19.562310
O 8.0        29.937032      -22.376951      -11.092234
H 1.0         30.000423      -22.971537      -10.344565
H 1.0         29.434877      -22.858263      -11.749575
O 8.0       -29.152637        8.108127      -40.590759
H 1.0        -28.546134        8.817451      -40.804240
H 1.0        -29.987027        8.541224      -40.411491
O 8.0         1.949655        5.324093       30.054193
H 1.0          2.743712        5.007580       30.485302
H 1.0          2.224827        5.555596       29.167286
O 8.0       -20.542689       23.170410      -48.619253
H 1.0        -20.482533       24.125510      -48.646198
H 1.0        -21.047088       22.931969      -49.396842
O 8.0        19.412566       18.748296       -5.334556
H 1.0         18.646477       18.872922       -5.895034
H 1.0         19.090622       18.877759       -4.442643
O 8.0       -12.993422       -3.422188      -17.613988
H 1.0        -12.736458       -2.650033      -17.109700
H 1.0        -12.604855       -4.162615      -17.148477
O 8.0         2.899119       -0.075736      -19.112325
H 1.0          3.267211       -0.897841      -18.787961
H 1.0          3.587843        0.306642      -19.655800
O 8.0       -17.294073      -22.192069      -53.748302
H 1.0        -16.539181      -21.620650      -53.606249
H 1.0        -18.021954      -21.599202      -53.934356
O 8.0        14.127806       24.299966       12.217685
H 1.0         13.386746       24.419013       11.623363
H 1.0         14.041610       25.000145       12.864398
O 8.0       -27.385208       -2.293735       35.986981
H 1.0        -27.454081       -1.452536       36.438868
H 1.0        -26.753879       -2.145810       35.283093
O 8.0        25.736184       21.355504       53.823500
H 1.0         25.101940       21.438446       53.111168
H 1.0         25.638502       20.457181       54.138762
O 8.0       -25.935119       16.043116      -14.740687
H 1.0        -26.420230       16.866255      -14.680099
H 1.0        -25.033360       16.269806      -14.514063
O 8.0        23.277644       -9.264236       -5.828464
H 1.0         23.356213       -8.863888       -6.694553
H 1.0         24.087927       -9.759570       -5.710136
O 8.0        -5.261177       -2.372940      -47.107970
H 1.0         -5.977185       -2.661663      -46.541814
H 1.0         -5.390734       -1.430207      -47.209884
O 8.0       -27.387527        4.374213      -37.431433
H 1.0        -27.801893        4.841773      -38.156863
H 1.0        -27.013902        5.058787      -36.876745
O 8.0       -22.392650       21.824759       50.943370
H 1.0        -22.242560       22.725860       51.229814
H 1.0        -21.889148       21.284303       51.551901
O 8.0        29.324699       24.646995       37.320496
H 1.0         29.957956       25.001175       36.695914
H 1.0         28.479777       25.001972       37.044789
O 8.0       -20.025598      -13.959286      -43.146296
H 1.0        -20.979976      -13.932407      -43.217009
H 1.0        -19.840633      -14.701867      -42.571597
O 8.0         1.013348       -3.749997      -35.677998
H 1.0          0.310926       -3.128428      -35.486120
H 1.0          0.633666       -4.367740      -36.302620
O 8.0       -26.499008       10.988390       47.442700
H 1.0        -27.389996       10.697974       47.638554
H 1.0        -26.147378       10.325501       46.848686
O 8.0        -1.593677       -7.869842       34.722372
H 1.0         -0.681765       -8.121945       34.868731
H 1.0         -1.660713       -6.976410       35.058828
O 8.0        -6.950455        3.885261      -25.140787
H 1.0         -6.247181        3.382804      -25.552496
H 1.0         -6.507277        4.490666      -24.546652
O 8.0        -6.887934       -0.864123      -31.412527
H 1.0         -6.407449       -1.531535      -30.922367
H 1.0         -7.741380       -1.257022      -31.594675
O 8.0         8.712806        4.118573      -55.518012
H 1.0          8.590873        3.896679      -54.594726
H 1.0          8.233069        3.445201      -56.000028
O 8.0       -29.437380      -19.712324        4.502676
H 1.0        -29.928803      -18.955200        4.821779
H 1.0        -29.999986      -20.465759        4.680800
O 8.0        26.417589      -21.154813       49.198584
H 1.0         25.548314      -20.948536       48.854532
H 1.0         26.307260      -21.184460       50.148776
O 8.0        17.591802      -20.430429       15.395274
H 1.0         17.497767      -19.571214       15.806938
H 1.0         18.256777      -20.309035       14.717786
O 8.0        29.114138       -5.678762       -8.186693
H 1.0         28.755160       -5.956236       -9.029726
H 1.0         29.969363       -6.104475       -8.129468
O 8.0       -29.676768       10.712660      -47.905840
H 1.0        -29.031620       11.380220      -48.139738
H 1.0        -29.214021       10.116418      -47.317387
O 8.0        16.902335      -22.690773       -3.819590
H 1.0         15.991884      -22.813597       -4.088949
H 1.0         16.896999      -21.898762       -3.282369
O 8.0        -0.080388        5.973139      -55.517179
H 1.0          0.052012        5.157107      -56.000006
H 1.0         -0.638918        5.735336      -54.777307
O 8.0       -22.470123       12.713727      -45.752123
H 1.0        -21.564857       12.805205      -45.454320
H 1.0        -22.826137       11.986008      -45.242615
O 8.0        -0.096744        9.540951       30.457515
H 1.0          0.839614        9.562662       30.655814
H 1.0         -0.247054       10.295873       29.888818
O 8.0         0.524715       -9.492011       17.813879
H 1.0          1.185662       -9.165601       17.203006
H 1.0         -0.134453       -8.799627       17.858816
O 8.0        25.017235      -10.381966      -30.882618
H 1.0         24.893918      -10.253763      -31.823319
H 1.0         25.928607      -10.141221      -30.717208
O 8.0       -25.541151      -21.568522      -10.430968
H 1.0        -26.254534      -21.236196      -10.976133
H 1.0        -25.185671      -20.796704       -9.990686
O 8.0        16.983382       21.776230       -7.841607
H 1.0         17.696248       21.897864       -8.468974
H 1.0         16.867449       22.632141       -7.429427
O 8.0        23.779511      -13.277646      -16.415188
H 1.0         24.148495      -12.400292      -16.311935
H 1.0         22.905173      -13.137478      -16.778234
O 8.0        24.055157      -12.199208       21.200269
H 1.0         23.363966      -12.352858       21.844634
H 1.0         24.482472      -11.391012       21.483356
O 8.0        23.287734       11.637336       30.148358
H 1.0         23.562708       11.108508       30.897551
H 1.0         22.342216       11.503745       30.084584
O 8.0        26.335740       22.778290      -11.452519
H 1.0         26.070868       22.065908      -12.034684
H 1.0         25.518242       23.202375      -11.192202
O 8.0        18.302341      -22.146307       41.735590
H 1.0         17.859849      -21.429515       41.280649
H 1.0         19.163080      -21.798332       41.967883
O 8.0       -26.655393       -4.351118      -32.939087
H 1.0        -27.418036       -3.935624      -33.341952
H 1.0        -26.381046       -3.748362      -32.248192
O 8.0       -15.463912      -21.064142      -11.880616
H 1.0        -14.810664      -21.388520      -11.260449
H 1.0        -15.033067      -20.343445      -12.339839
O 8.0        -3.907222        2.871895       20.404454
H 1.0         -4.400899        3.609880       20.046372
H 1.0         -3.648343        3.149969       21.282847
O 8.0        24.318792       -4.524854       11.108620
H 1.0         24.413175       -3.626011       11.424427
H 1.0         24.977300       -4.615919       10.420149
O 8.0         3.137113        1.926469       25.948646
H 1.0          3.571541        2.015425       25.100165
H 1.0          2.825916        1.021795       25.973935
O 8.0         6.332574        1.225596       55.064014
H 1.0          7.013309        0.570323       55.218214
H 1.0          6.738888        1.874417       54.489682
O 8.0       -21.132408      -15.317767       -6.295046
H 1.0        -21.849584      -14.898495       -6.770893
H 1.0        -20.826710      -14.656292       -5.674628
O 8.0       -29.732700       -6.228702       30.867378
H 1.0        -29.457537       -5.611212       31.545280
H 1.0        -29.998552       -5.682427       30.127903
O 8.0        10.772226       24.582175       53.651049
H 1.0         11.353789       25.000035       53.015645
H 1.0         10.977502       25.000293       54.487086
O 8.0        20.620223       17.400199       55.459799
H 1.0         20.993899       18.253463       55.238742
H 1.0         21.283668       16.971799       56.000384
O 8.0        10.696955        2.590499       32.982679
H 1.0         11.266149        2.885283       32.271566
H 1.0          9.853453        2.412353       32.567124
O 8.0         4.091408      -19.516101      -53.220337
H 1.0          4.920386      -19.936623      -53.449505
H 1.0          3.519115      -19.670967      -53.971612
O 8.0       -29.432016       22.832309      -12.898568
H 1.0        -30.001484       23.185662      -13.582241
H 1.0        -30.000661       22.277744      -12.364698
O 8.0        -4.542979       -5.981776       39.081059
H 1.0         -4.629969       -5.084173       39.402468
H 1.0         -5.280102       -6.103195       38.482875
O 8.0       -23.422882      -16.211209       22.362041
H 1.0        -23.654076      -15.933443       23.248583
H 1.0        -23.150932      -15.410162       21.914510
O 8.0       -12.433496       25.000021       31.564909
H 1.0        -11.594338       24.539605       31.584706
H 1.0        -12.789210       24.829227       30.693006
O 8.0        18.896629      -18.155910       52.351392
H 1.0         18.928647      -17.263078       52.007317
H 1.0         19.608345      -18.201062       52.989623
O 8.0       -21.903565      -24.999569      -35.703335
H 1.0        -21.124412      -24.966758      -35.147992
H 1.0        -21.570091      -24.970346      -36.599917
O 8.0       -24.688632      -13.530336      -13.172393
H 1.0        -25.532923      -13.480519      -12.723781
H 1.0        -24.051751      -13.713748      -12.481987
O 8.0       -26.516419      -20.813109        0.286813
H 1.0        -26.318631      -19.878093        0.230375
H 1.0        -25.775050      -21.195210        0.756162
O 8.0       -15.984131      -18.099139      -12.380357
H 1.0        -15.350999      -18.264917      -13.079086
H 1.0        -16.765634      -17.773284      -12.826437
O 8.0       -29.449729        2.493423        3.611588
H 1.0        -29.087852        3.092170        4.265123
H 1.0        -28.872794        1.730028        3.628690
O 8.0       -12.714739       -3.478681       30.164279
H 1.0        -11.926031       -2.959818       30.323284
H 1.0        -12.945611       -3.305140       29.251865
O 8.0       -29.220746       19.939874       35.478617
H 1.0        -28.576245       20.602204       35.228620
H 1.0        -29.983066       20.115573       34.927332
O 8.0        -0.981906       -4.628609       42.392858
H 1.0         -0.574054       -4.372036       41.565580
H 1.0         -1.789178       -4.116765       42.440245
O 8.0         7.489341       -4.485432       19.460828
H 1.0          7.661284       -5.390735       19.720486
H 1.0          8.158770       -3.968056       19.908158
O 8.0         7.885230      -25.000014       -0.506168
H 1.0          8.679480      -24.958582        0.026759
H 1.0          7.163823      -24.924573        0.118170
O 8.0        11.209461        3.303989      -21.757216
H 1.0         11.777215        3.950746      -21.337784
H 1.0         11.682069        3.032685      -22.543952
O 8.0        -6.934043      -22.197858      -31.244715
H 1.0         -6.120876      -22.402569      -30.782749
H 1.0         -6.872621      -22.669568      -32.075157
O 8.0        16.075425      -19.733084      -30.534803
H 1.0         16.082903      -18.950480      -31.086199
H 1.0         16.944628      -20.119238      -30.641044
O 8.0         3.090511       -0.260964      -24.910892
H 1.0          3.355921       -0.642108      -24.073726
H 1.0          2.141929       -0.152956      -24.844234
O 8.0       -22.878470        7.692846       -5.775446
H 1.0        -22.757899        8.636483       -5.667872
H 1.0        -23.785315        7.528054       -5.517776
O 8.0        29.476376       18.259520       -8.363663
H 1.0         30.010028       18.206457       -9.156734
H 1.0         28.777570       18.877896       -8.576264
O 8.0        21.473916       13.668497        9.611568
H 1.0         22.261592       14.171468        9.403850
H 1.0         21.738444       13.071862       10.311546
O 8.0        18.028443       18.325006      -13.439934
H 1.0         17.821313       18.980587      -14.106171
H 1.0         18.795071       18.670177      -12.982709
O 8.0       -18.812822       15.783135        3.791224
H 1.0        -19.091433       16.427629        4.442042
H 1.0        -19.261082       16.036168        2.984405
O 8.0        26.547361      -17.145185       22.340040
H 1.0         27.439593      -16.813147       22.238877
H 1.0         26.019273      -16.624627       21.735011
O 8.0        -4.883554       -9.023189       26.482198
H 1.0         -5.214167       -8.194281       26.828850
H 1.0         -4.788032       -8.877603       25.541136
O 8.0         1.686113        0.394128        1.182202
H 1.0          2.533718       -0.027570        1.324669
H 1.0          1.142077       -0.276462        0.769587
O 8.0       -20.709644      -14.429849       12.266231
H 1.0        -21.407292      -14.789691       11.718179
H 1.0        -20.399903      -15.168712       12.789738
O 8.0        14.094738       19.705635      -43.307920
H 1.0         13.381359       20.266430      -43.002698
H 1.0         13.681062       19.080250      -43.902633
O 8.0        18.793209      -22.184314       33.542454
H 1.0         17.970974      -22.518747       33.901126
H 1.0         19.438391      -22.316871       34.236778
O 8.0       -25.242415      -17.395318      -33.265776
H 1.0        -24.903537      -16.663836      -32.749388
H 1.0        -24.687911      -17.426148      -34.045194
O 8.0        23.987334      -20.715647      -21.276932
H 1.0         24.086136      -21.342482      -21.993785
H 1.0         23.468395      -21.174413      -20.616513
O 8.0        -0.559953        5.065360        0.289444
H 1.0         -0.274883        5.907388        0.644808
H 1.0         -1.460352        5.210907       -0.000409
O 8.0        26.096898        8.854151       21.537714
H 1.0         25.304639        8.362149       21.754094
H 1.0         26.582903        8.289362       20.937105
O 8.0       -27.582327      -16.891376       34.442723
H 1.0        -26.958743      -16.418561       34.994219
H 1.0        -28.300941      -17.128525       35.028617
O 8.0        23.345448       22.799720       16.104447
H 1.0         23.197540       23.737275       16.229640
H 1.0         23.466053       22.691781       15.161196
O 8.0        27.969015       15.595711      -18.854139
H 1.0         28.128100       15.239800      -19.728542
H 1.0         28.292356       16.495738      -18.890467
O 8.0       -25.673059      -14.140721       47.817544
H 1.0        -24.946596      -14.639768       47.443693
H 1.0        -26.228669      -14.793343       48.243337
O 8.0        23.392765       20.588247       -6.154439
H 1.0         22.979908       19.821760       -5.756183
H 1.0         24.286734       20.593594       -5.812812
O 8.0        16.919407      -21.667696      -43.502904
H 1.0         17.663460      -22.192912      -43.207787
H 1.0         17.292049      -21.030683      -44.112224
O 8.0         3.898423       -4.143961       30.035043
H 1.0          3.298777       -4.865494       29.844316
H 1.0          3.459907       -3.630072       30.712936
O 8.0        -1.835255        7.943086      -20.838513
H 1.0         -1.453041        7.065621      -20.861499
H 1.0         -2.648355        7.846171      -20.343141
O 8.0       -22.118739       14.743610       55.384262
H 1.0        -21.971134       14.320917       54.538033
H 1.0        -21.481712       14.343120       55.975636
O 8.0         4.290826       23.460497        6.309486
H 1.0          3.427763       23.810101        6.087089
H 1.0          4.876201       24.217473        6.293982
O 8.0        23.136332      -24.061431      -48.680960
H 1.0         23.075518      -24.971244      -48.972681
H 1.0         22.311409      -23.658832      -48.951762
O 8.0       -24.245096       21.165278      -55.135346
H 1.0        -23.952583       21.453644      -56.000124
H 1.0        -25.169039       20.942621      -55.247915
O 8.0        29.844270      -22.561457       55.792671
H 1.0         28.923303      -22.408871       56.005037
H 1.0         30.007549      -22.038164       55.008183
O 8.0       -25.082987       19.971375        9.256124
H 1.0        -26.012948       20.198036        9.275060
H 1.0        -25.004585       19.303800        8.574864
O 8.0        29.321278       24.796743      -15.061370
H 1.0         28.531764       25.001616      -14.560116
H 1.0         29.098156       25.000985      -15.969346
O 8.0        26.544293      -24.471120       23.370679
H 1.0         25.843560      -23.908811       23.701348
H 1.0         26.135252      -24.999781       22.685756
O 8.0        -0.488562        2.559880       36.800028
H 1.0         -1.176145        3.226056       36.799543
H 1.0         -0.724668        1.959723       36.092934
O 8.0       -22.537253       19.996443       -7.684654
H 1.0        -23.387803       19.558293       -7.718561
H 1.0        -21.895598       19.304311       -7.843237
O 8.0        29.999673      -16.582292      -11.257340
H 1.0         30.000296      -15.732569      -10.816283
H 1.0         30.003552      -16.376250      -12.191925
O 8.0       -20.843883       25.000312        4.159289
H 1.0        -20.448487       24.779500        3.315805
H 1.0        -21.747418       24.690841        4.097883
O 8.0       -22.719854      -22.057569      -52.524157
H 1.0        -23.281985      -22.725926      -52.916417
H 1.0        -23.317003      -21.477855      -52.051652
O 8.0        22.180557      -25.000391      -46.660927
H 1.0         22.280649      -24.122478      -46.292400
H 1.0         21.501458      -24.912411      -47.329509
O 8.0        24.835939      -18.952414      -34.470600
H 1.0         25.467345      -19.431670      -35.007442
H 1.0         23.982517      -19.312654      -34.711048
O 8.0         7.309513        0.261003      -27.846137
H 1.0          6.720594       -0.278357      -28.374177
H 1.0          6.747649        0.927579      -27.451292
O 8.0       -22.439598      -22.145944       29.231728
H 1.0        -22.348688      -21.218974       29.453139
H 1.0        -23.363846      -22.258190       29.010179
O 8.0        -5.842611        1.190501       12.634488
H 1.0         -5.367154        1.091710       13.459559
H 1.0         -6.009555        2.129567       12.555733
O 8.0        11.818424        1.530747       40.412933
H 1.0         10.906833        1.466606       40.127541
H 1.0         12.281978        0.858138       39.914302
O 8.0        21.153953      -18.681083       -0.438928
H 1.0         21.977017      -18.512184        0.019984
H 1.0         20.925944      -17.848920       -0.852973
O 8.0       -14.659337      -22.354347       52.406256
H 1.0        -15.600038      -22.180392       52.443424
H 1.0        -14.565627      -23.078560       51.787668
O 8.0        17.273608      -23.359309       -1.565148
H 1.0         17.006618      -23.897249       -0.819563
H 1.0         17.644005      -23.976505       -2.195857
O 8.0       -19.036001       14.878602       45.317395
H 1.0        -18.336545       15.381759       44.900077
H 1.0        -19.840552       15.170641       44.889227
O 8.0       -27.701228      -13.955262       49.683837
H 1.0        -27.292936      -13.181118       49.295816
H 1.0        -27.024913      -14.338428       50.242138
O 8.0        22.977179      -18.304223       -8.654239
H 1.0         22.119543      -18.226748       -8.235886
H 1.0         22.797650      -18.665110       -9.522252
O 8.0        -1.736947       -5.837098        1.515323
H 1.0         -0.988567       -6.319370        1.867319
H 1.0         -1.354082       -5.135193        0.989337
O 8.0        20.466844       25.003771      -43.796491
H 1.0         19.935087       24.778276      -43.032981
H 1.0         21.373059       24.929158      -43.497953
O 8.0        27.488047       18.445439       32.772242
H 1.0         26.748641       18.029943       32.328166
H 1.0         28.140496       18.587760       32.086697
O 8.0         1.886142       -9.142390        9.757619
H 1.0          1.552347       -9.865220        9.225963
H 1.0          2.765851       -8.972974        9.420979
O 8.0        29.910670      -23.876432       46.294301
H 1.0         28.983920      -24.116604       46.290849
H 1.0         30.002653      -23.254421       47.015798
O 8.0       -14.428107      -24.188296        2.534084
H 1.0        -14.310756      -23.461678        3.146305
H 1.0        -14.106657      -24.959624        3.000605
O 8.0       -29.878060       -6.723090       48.722165
H 1.0        -30.000169       -6.615246       49.665574
H 1.0        -29.486022       -5.901226       48.427610
O 8.0        -9.962078       -0.294943       -4.555126
H 1.0         -9.371253       -0.232087       -5.305816
H 1.0         -9.433438       -0.677866       -3.855250
O 8.0        -8.153652       -5.207511       24.535247
H 1.0         -8.616012       -5.597079       23.792939
H 1.0         -8.410003       -5.735273       25.291335
O 8.0       -22.455873       13.014740      -50.870341
H 1.0        -23.119264       12.619188      -50.304645
H 1.0        -22.825838       13.856918      -51.134496
O 8.0         6.153931       -2.384225       48.995494
H 1.0          6.751041       -2.947236       48.502503
H 1.0          5.511453       -2.980646       49.379447
O 8.0        -2.910529        1.923692       37.167997
H 1.0         -2.257212        1.353177       37.573276
H 1.0         -3.751256        1.501710       37.344145
O 8.0       -15.338795      -22.332986      -23.378531
H 1.0        -16.080473      -22.849861      -23.063386
H 1.0        -15.461966      -21.464343      -22.996163
O 8.0         2.563388       -3.602869      -15.864632
H 1.0          1.729017       -3.308958      -16.230697
H 1.0          2.342822       -4.359371      -15.321519
O 8.0       -24.013045      -22.568847       -2.290081
H 1.0        -23.598511      -23.019323       -3.026147
H 1.0        -23.419557      -22.703276       -1.551421
O 8.0       -12.632555      -23.513583      -12.566383
H 1.0        -12.670854      -22.569036      -12.717797
H 1.0        -12.338577      -23.885947      -13.397550
O 8.0       -27.799378      -10.687967      -13.681294
H 1.0        -27.220479       -9.938195      -13.542440
H 1.0        -27.213520      -11.438197      -13.780506
O 8.0       -25.833089      -18.583766       36.928556
H 1.0        -24.962448      -18.261857       37.162905
H 1.0        -26.277389      -17.832682       36.535634
O 8.0       -26.436991      -14.688175       33.245761
H 1.0        -26.542633      -15.605470       32.992837
H 1.0        -27.129368      -14.526572       33.886398
O 8.0        20.661173       13.505918      -22.968133
H 1.0         20.958915       12.784369      -23.522459
H 1.0         21.449546       13.819955      -22.525679
O 8.0         3.225311       -5.580411      -16.941957
H 1.0          2.301685       -5.831996      -16.955437
H 1.0          3.287727       -4.835039      -17.538985
O 8.0        -5.646579       -1.438591      -50.616232
H 1.0         -5.693080       -0.588309      -50.178717
H 1.0         -6.367690       -1.433151      -51.245427
O 8.0        22.017251      -13.521952        9.339364
H 1.0         22.323554      -14.279870        9.837661
H 1.0         21.701776      -12.903504        9.998086
O 8.0        -5.520694       -5.070774      -18.185762
H 1.0         -4.930390       -5.824474      -18.192071
H 1.0         -6.096578       -5.200892      -18.938985
O 8.0        14.915745      -20.842487       -0.391687
H 1.0         14.973096      -20.006126        0.070669
H 1.0         14.713833      -20.611076       -1.298107
O 8.0        27.849156      -18.074764      -35.349462
H 1.0         28.540148      -18.737379      -35.343773
H 1.0         28.226331      -17.327558      -35.813508
O 8.0        25.042551       11.268626       53.376670
H 1.0         24.601508       12.035620       53.742407
H 1.0         25.674017       11.003761       54.045262
O 8.0        -2.248533        7.087983      -37.510479
H 1.0         -3.094753        6.688998      -37.713665
H 1.0         -1.912312        7.397434      -38.351379
O 8.0       -13.497820       -0.722764        4.649860
H 1.0        -13.611650        0.087026        5.147699
H 1.0        -14.330310       -0.853772        4.196303
O 8.0       -10.236045       -1.491890      -26.314080
H 1.0        -10.679227       -2.118688      -25.742001
H 1.0         -9.394908       -1.898226      -26.522160
O 8.0        24.363291        8.744496       26.425885
H 1.0         25.243998        8.715605       26.800159
H 1.0         23.804517        9.068289       27.132175
O 8.0       -27.875728        9.669863      -19.903952
H 1.0        -27.604969        9.192237      -19.119653
H 1.0        -27.097245        9.694433      -20.460080
O 8.0       -25.383858      -10.450517      -38.567164
H 1.0        -24.931695      -11.293852      -38.537253
H 1.0        -24.706137       -9.814022      -38.794068
O 8.0        17.890552       19.802357      -17.247999
H 1.0         18.350971       19.638247      -16.424809
H 1.0         17.779692       18.939157      -17.646137
O 8.0       -20.604791        8.867816       -1.339123
H 1.0        -20.848333        8.949345       -2.261403
H 1.0        -20.074218        9.642418       -1.153647
O 8.0        26.391210        1.706420      -14.573049
H 1.0         25.908231        2.518453      -14.727627
H 1.0         26.982942        1.904486      -13.847418
O 8.0       -25.006284        9.065311       -1.134634
H 1.0        -24.958806        9.727730       -0.445063